93 93
15 11
23 18
46 42
43 34
2 11
1 15
89 38
88 21
18 36
4 35
22 7
52 20
70 45
62 31
79 26
50 3
14 42
16 8
35 16
39 9
67 8
64 10
3 3
84 46
13 36
81 27
41 7
19 19
38 24
87 44
44 17
75 1
42 19
83 33
66 6
68 28
59 40
49 9
20 47
57 40
31 5
10 22
47 2
17 14
12 39
63 34
40 25
5 29
9 37
60 6
36 21
58 28
37 25
61 46
71 17
82 32
92 41
28 32
86 10
32 23
85 2
53 4
33 30
93 1
29 38
77 29
91 26
24 44
26 13
72 43
45 16
55 31
51 14
80 24
56 41
69 37
65 22
8 20
76 45
11 33
78 39
74 13
34 4
48 27
21 15
6 12
73 12
27 5
90 23
25 35
54 30
7 43
30 18
